! B3LYP D3BJ def2-TZVPD def2/J RIJCOSX TightSCF
%maxcore 3000
%pal nprocs 8 end
%scf MaxIter 300 end
* xyz -2 1
  C      48.03421125    27.95050161    56.83867235
  H      48.90507376    27.48288506    56.37943141
  H      48.18333941    28.72830512    57.58685113
  C      46.78778279    27.60132041    56.49983080
  C      45.57424503    28.23738459    57.16256638
  O      45.74012738    29.29805762    57.82177253
  O      44.47251667    27.65240199    57.02966798
  O      46.53307522    26.60806649    55.57243676
  C      46.55466886    26.97010405    54.14304404
  H      46.36468872    26.01589406    53.63178692
  C      47.91855040    27.49957717    53.81539884
  H      48.75381440    26.79814866    53.74887754
  C      48.15338856    28.82723189    53.80673983
  C      47.03338180    29.76619240    53.94786755
  H      47.30454887    30.81802056    54.03991068
  C      45.75470923    29.35824053    53.99783485
  H      44.95141796    30.08787871    54.13828151
  C      45.37444314    27.91226707    53.81484733
  H      44.58138206    27.65883883    54.53499889
  O      44.92068683    27.71773265    52.48272775
  H      44.04548349    27.22578318    52.47473834
  C      49.56294646    29.40914845    53.81508474
  O      50.55026136    28.64957869    53.95873032
  O      49.62807151    30.66843667    53.75777922
  Ne>  0.000000     47.48070500    24.05965300    54.92320200  NewECP
  N_core 10
  lmax f
  s 1
    1  2.0475   54.5100  2
  p 1
    1  0.44815   1.46500  2
  d 1
    1  0.49205  -0.83800  2
  f 1
    1  1.0000    0.0000  2
end
  Ne>  0.000000     52.34180500    30.42611100    53.41665400  NewECP
  N_core 10
  lmax f
  s 1
    1  2.0475   54.5100  2
  p 1
    1  0.44815   1.46500  2
  d 1
    1  0.49205  -0.83800  2
  f 1
    1  1.0000    0.0000  2
end
  Ne>  0.000000     44.86287900    24.52784100    57.08792800  NewECP
  N_core 10
  lmax f
  s 1
    1  2.0475   54.5100  2
  p 1
    1  0.44815   1.46500  2
  d 1
    1  0.49205  -0.83800  2
  f 1
    1  1.0000    0.0000  2
end
  Ne>  0.000000     43.74399400    30.74859300    58.75672100  NewECP
  N_core 10
  lmax f
  s 1
    1  2.0475   54.5100  2
  p 1
    1  0.44815   1.46500  2
  d 1
    1  0.49205  -0.83800  2
  f 1
    1  1.0000    0.0000  2
end
  Ne>  0.000000     50.57462000    28.22709400    50.95209500  NewECP
  N_core 10
  lmax f
  s 1
    1  2.0475   54.5100  2
  p 1
    1  0.44815   1.46500  2
  d 1
    1  0.49205  -0.83800  2
  f 1
    1  1.0000    0.0000  2
end
*
