! B3LYP D3BJ def2-TZVPD def2/J RIJCOSX TightSCF
%maxcore 3000
%pal nprocs 8 end
%scf MaxIter 300 end
* xyz -2 1
  C      48.13607208    27.99752977    56.49758958
  H      48.99205570    27.41910833    56.16066838
  H      48.30100373    28.87081655    57.12450017
  C      46.85633963    27.44939619    56.45299591
  C      45.68335848    28.20589861    57.11683374
  O      45.92984999    29.22620861    57.80872665
  O      44.53586393    27.72649739    56.94246090
  O      46.59510730    26.39725954    55.78606032
  C      46.56814307    26.89494612    53.65239134
  H      46.40443631    25.86241083    53.33729083
  C      47.84770711    27.41599201    53.66923311
  H      48.71706287    26.77910877    53.49831340
  C      48.05444145    28.71950629    54.13677133
  C      46.90673501    29.61914038    54.26065777
  H      47.12712793    30.65234456    54.52355440
  C      45.65242810    29.18924363    54.05804052
  H      44.81046662    29.87790750    54.16825995
  C      45.33551151    27.77384088    53.66650806
  H      44.63306541    27.36761383    54.40873397
  O      44.75187017    27.76559944    52.37001541
  H      43.88674981    27.23788481    52.37530201
  C      49.44135634    29.35360826    54.04198640
  O      50.46566960    28.63741340    54.13149585
  O      49.44996397    30.60325657    53.87523537
  Ne>  -1.000000     52.34180500    30.42611100    53.41665400  NewECP
  N_core 10
  lmax f
  s 1
    1  2.0475   54.5100  2
  p 1
    1  0.44815   1.46500  2
  d 1
    1  0.49205  -0.83800  2
  f 1
    1  1.0000    0.0000  2
end
*
